200
1000
627
623
620
617
616
611
598
594
594
590
589
584
581
579
575
569
568
566
563
562
562
554
554
554
553
552
548
548
544
535
534
532
531
530
528
523
518
516
516
512
508
500
496
496
496
494
494
494
492
491
485
483
481
479
477
476
475
467
461
459
455
454
448
448
444
440
439
439
438
437
436
434
431
430
423
422
417
415
409
408
408
404
400
398
398
398
396
396
394
387
385
384
379
378
378
374
373
372
368
367
360
359
353
348
348
342
337
331
331
329
329
324
319
316
315
315
314
312
310
308
308
308
306
297
294
288
284
284
283
277
268
266
266
264
258
253
252
248
242
236
235
231
229
229
227
226
224
220
216
214
210
202
201
198
193
192
185
185
184
177
175
173
173
168
166
163
149
148
148
145
145
138
137
135
134
133
130
118
116
108
103
102
102
101
96
95
90
83
82
80
80
71
68
64
62
61
60
54
53
52
